#######################################
### Exact MIP solver for the HHCRSP ###
#######################################
-- Instance file: new-instances/HHCRSP_75_15_26_1.0_C_R.txt
-- Max threads: 4
-- Time limit: 999999 seconds
-- Use initial solution: No
Trivial flow violations prevented generating 20274 variables.
Model exported.
Version identifier: 20.1.0.0 | 2020-11-10 | 9bedb6d68
CPXPARAM_Threads                                 4
CPXPARAM_TimeLimit                               999999
Parallel mode: deterministic, using up to 4 threads for concurrent optimization:
 * Starting dual Simplex on 1 thread...
 * Starting Barrier on 3 threads...
Tried aggregator 1 time.
LP Presolve eliminated 3132 rows and 687 columns.
Reduced LP has 22294 rows, 21551 columns, and 213790 nonzeros.
Presolve time = 0.11 sec. (59.60 ticks)
Symmetry aggregator did 21351 additional substitutions.

Iteration log . . .
Iteration:     1   Dual objective     =             0.000000

Dual crossover.
  Dual:  Fixing 189 variables.
      188 DMoves:  Infeasibility  5.61772867e-14  Objective  1.92666667e+02
        0 DMoves:  Infeasibility  2.45914417e-14  Objective  1.92666667e+02
  Dual:  Pushed 3, exchanged 186.
  Primal:  Fixing 51 variables.
       50 PMoves:  Infeasibility  0.00000000e+00  Objective  1.92666667e+02
        0 PMoves:  Infeasibility  0.00000000e+00  Objective  1.92666667e+02
  Primal:  Pushed 14, exchanged 37.

Dual simplex solved model.


Solution status from MIP model:
-- Processing time: 0.178 sec.
-- Memory used: 83.2412 MB
-- Best bound: inf
-- Obj value: 192.667
-- Gap: inf%
-- Total distance: 578
-- Total tardiness: 0
-- Largest tardiness: 0
